c description: Subset cardinality formula for fast_gnp_random_graph(6,10,0.8)
c generator: CNFgen (0.9.0)
c copyright: (C) 2012-2020 Massimo Lauria <massimo.lauria@uniroma1.it>
c url: https://massimolauria.net/cnfgen
c
p cnf 47 623
1 2 3 4 5 0
1 2 3 4 6 0
1 2 3 4 7 0
1 2 3 4 8 0
1 2 3 5 6 0
1 2 3 5 7 0
1 2 3 5 8 0
1 2 3 6 7 0
1 2 3 6 8 0
1 2 3 7 8 0
1 2 4 5 6 0
1 2 4 5 7 0
1 2 4 5 8 0
1 2 4 6 7 0
1 2 4 6 8 0
1 2 4 7 8 0
1 2 5 6 7 0
1 2 5 6 8 0
1 2 5 7 8 0
1 2 6 7 8 0
1 3 4 5 6 0
1 3 4 5 7 0
1 3 4 5 8 0
1 3 4 6 7 0
1 3 4 6 8 0
1 3 4 7 8 0
1 3 5 6 7 0
1 3 5 6 8 0
1 3 5 7 8 0
1 3 6 7 8 0
1 4 5 6 7 0
1 4 5 6 8 0
1 4 5 7 8 0
1 4 6 7 8 0
1 5 6 7 8 0
2 3 4 5 6 0
2 3 4 5 7 0
2 3 4 5 8 0
2 3 4 6 7 0
2 3 4 6 8 0
2 3 4 7 8 0
2 3 5 6 7 0
2 3 5 6 8 0
2 3 5 7 8 0
2 3 6 7 8 0
2 4 5 6 7 0
2 4 5 6 8 0
2 4 5 7 8 0
2 4 6 7 8 0
2 5 6 7 8 0
3 4 5 6 7 0
3 4 5 6 8 0
3 4 5 7 8 0
3 4 6 7 8 0
3 5 6 7 8 0
4 5 6 7 8 0
9 10 11 12 13 0
9 10 11 12 14 0
9 10 11 12 15 0
9 10 11 12 16 0
9 10 11 12 17 0
9 10 11 13 14 0
9 10 11 13 15 0
9 10 11 13 16 0
9 10 11 13 17 0
9 10 11 14 15 0
9 10 11 14 16 0
9 10 11 14 17 0
9 10 11 15 16 0
9 10 11 15 17 0
9 10 11 16 17 0
9 10 12 13 14 0
9 10 12 13 15 0
9 10 12 13 16 0
9 10 12 13 17 0
9 10 12 14 15 0
9 10 12 14 16 0
9 10 12 14 17 0
9 10 12 15 16 0
9 10 12 15 17 0
9 10 12 16 17 0
9 10 13 14 15 0
9 10 13 14 16 0
9 10 13 14 17 0
9 10 13 15 16 0
9 10 13 15 17 0
9 10 13 16 17 0
9 10 14 15 16 0
9 10 14 15 17 0
9 10 14 16 17 0
9 10 15 16 17 0
9 11 12 13 14 0
9 11 12 13 15 0
9 11 12 13 16 0
9 11 12 13 17 0
9 11 12 14 15 0
9 11 12 14 16 0
9 11 12 14 17 0
9 11 12 15 16 0
9 11 12 15 17 0
9 11 12 16 17 0
9 11 13 14 15 0
9 11 13 14 16 0
9 11 13 14 17 0
9 11 13 15 16 0
9 11 13 15 17 0
9 11 13 16 17 0
9 11 14 15 16 0
9 11 14 15 17 0
9 11 14 16 17 0
9 11 15 16 17 0
9 12 13 14 15 0
9 12 13 14 16 0
9 12 13 14 17 0
9 12 13 15 16 0
9 12 13 15 17 0
9 12 13 16 17 0
9 12 14 15 16 0
9 12 14 15 17 0
9 12 14 16 17 0
9 12 15 16 17 0
9 13 14 15 16 0
9 13 14 15 17 0
9 13 14 16 17 0
9 13 15 16 17 0
9 14 15 16 17 0
10 11 12 13 14 0
10 11 12 13 15 0
10 11 12 13 16 0
10 11 12 13 17 0
10 11 12 14 15 0
10 11 12 14 16 0
10 11 12 14 17 0
10 11 12 15 16 0
10 11 12 15 17 0
10 11 12 16 17 0
10 11 13 14 15 0
10 11 13 14 16 0
10 11 13 14 17 0
10 11 13 15 16 0
10 11 13 15 17 0
10 11 13 16 17 0
10 11 14 15 16 0
10 11 14 15 17 0
10 11 14 16 17 0
10 11 15 16 17 0
10 12 13 14 15 0
10 12 13 14 16 0
10 12 13 14 17 0
10 12 13 15 16 0
10 12 13 15 17 0
10 12 13 16 17 0
10 12 14 15 16 0
10 12 14 15 17 0
10 12 14 16 17 0
10 12 15 16 17 0
10 13 14 15 16 0
10 13 14 15 17 0
10 13 14 16 17 0
10 13 15 16 17 0
10 14 15 16 17 0
11 12 13 14 15 0
11 12 13 14 16 0
11 12 13 14 17 0
11 12 13 15 16 0
11 12 13 15 17 0
11 12 13 16 17 0
11 12 14 15 16 0
11 12 14 15 17 0
11 12 14 16 17 0
11 12 15 16 17 0
11 13 14 15 16 0
11 13 14 15 17 0
11 13 14 16 17 0
11 13 15 16 17 0
11 14 15 16 17 0
12 13 14 15 16 0
12 13 14 15 17 0
12 13 14 16 17 0
12 13 15 16 17 0
12 14 15 16 17 0
13 14 15 16 17 0
18 19 20 0
18 19 21 0
18 19 22 0
18 20 21 0
18 20 22 0
18 21 22 0
19 20 21 0
19 20 22 0
19 21 22 0
20 21 22 0
23 24 25 26 0
23 24 25 27 0
23 24 25 28 0
23 24 26 27 0
23 24 26 28 0
23 24 27 28 0
23 25 26 27 0
23 25 26 28 0
23 25 27 28 0
23 26 27 28 0
24 25 26 27 0
24 25 26 28 0
24 25 27 28 0
24 26 27 28 0
25 26 27 28 0
29 30 31 32 33 0
29 30 31 32 34 0
29 30 31 32 35 0
29 30 31 32 36 0
29 30 31 32 37 0
29 30 31 33 34 0
29 30 31 33 35 0
29 30 31 33 36 0
29 30 31 33 37 0
29 30 31 34 35 0
29 30 31 34 36 0
29 30 31 34 37 0
29 30 31 35 36 0
29 30 31 35 37 0
29 30 31 36 37 0
29 30 32 33 34 0
29 30 32 33 35 0
29 30 32 33 36 0
29 30 32 33 37 0
29 30 32 34 35 0
29 30 32 34 36 0
29 30 32 34 37 0
29 30 32 35 36 0
29 30 32 35 37 0
29 30 32 36 37 0
29 30 33 34 35 0
29 30 33 34 36 0
29 30 33 34 37 0
29 30 33 35 36 0
29 30 33 35 37 0
29 30 33 36 37 0
29 30 34 35 36 0
29 30 34 35 37 0
29 30 34 36 37 0
29 30 35 36 37 0
29 31 32 33 34 0
29 31 32 33 35 0
29 31 32 33 36 0
29 31 32 33 37 0
29 31 32 34 35 0
29 31 32 34 36 0
29 31 32 34 37 0
29 31 32 35 36 0
29 31 32 35 37 0
29 31 32 36 37 0
29 31 33 34 35 0
29 31 33 34 36 0
29 31 33 34 37 0
29 31 33 35 36 0
29 31 33 35 37 0
29 31 33 36 37 0
29 31 34 35 36 0
29 31 34 35 37 0
29 31 34 36 37 0
29 31 35 36 37 0
29 32 33 34 35 0
29 32 33 34 36 0
29 32 33 34 37 0
29 32 33 35 36 0
29 32 33 35 37 0
29 32 33 36 37 0
29 32 34 35 36 0
29 32 34 35 37 0
29 32 34 36 37 0
29 32 35 36 37 0
29 33 34 35 36 0
29 33 34 35 37 0
29 33 34 36 37 0
29 33 35 36 37 0
29 34 35 36 37 0
30 31 32 33 34 0
30 31 32 33 35 0
30 31 32 33 36 0
30 31 32 33 37 0
30 31 32 34 35 0
30 31 32 34 36 0
30 31 32 34 37 0
30 31 32 35 36 0
30 31 32 35 37 0
30 31 32 36 37 0
30 31 33 34 35 0
30 31 33 34 36 0
30 31 33 34 37 0
30 31 33 35 36 0
30 31 33 35 37 0
30 31 33 36 37 0
30 31 34 35 36 0
30 31 34 35 37 0
30 31 34 36 37 0
30 31 35 36 37 0
30 32 33 34 35 0
30 32 33 34 36 0
30 32 33 34 37 0
30 32 33 35 36 0
30 32 33 35 37 0
30 32 33 36 37 0
30 32 34 35 36 0
30 32 34 35 37 0
30 32 34 36 37 0
30 32 35 36 37 0
30 33 34 35 36 0
30 33 34 35 37 0
30 33 34 36 37 0
30 33 35 36 37 0
30 34 35 36 37 0
31 32 33 34 35 0
31 32 33 34 36 0
31 32 33 34 37 0
31 32 33 35 36 0
31 32 33 35 37 0
31 32 33 36 37 0
31 32 34 35 36 0
31 32 34 35 37 0
31 32 34 36 37 0
31 32 35 36 37 0
31 33 34 35 36 0
31 33 34 35 37 0
31 33 34 36 37 0
31 33 35 36 37 0
31 34 35 36 37 0
32 33 34 35 36 0
32 33 34 35 37 0
32 33 34 36 37 0
32 33 35 36 37 0
32 34 35 36 37 0
33 34 35 36 37 0
38 39 40 41 42 43 0
38 39 40 41 42 44 0
38 39 40 41 42 45 0
38 39 40 41 42 46 0
38 39 40 41 42 47 0
38 39 40 41 43 44 0
38 39 40 41 43 45 0
38 39 40 41 43 46 0
38 39 40 41 43 47 0
38 39 40 41 44 45 0
38 39 40 41 44 46 0
38 39 40 41 44 47 0
38 39 40 41 45 46 0
38 39 40 41 45 47 0
38 39 40 41 46 47 0
38 39 40 42 43 44 0
38 39 40 42 43 45 0
38 39 40 42 43 46 0
38 39 40 42 43 47 0
38 39 40 42 44 45 0
38 39 40 42 44 46 0
38 39 40 42 44 47 0
38 39 40 42 45 46 0
38 39 40 42 45 47 0
38 39 40 42 46 47 0
38 39 40 43 44 45 0
38 39 40 43 44 46 0
38 39 40 43 44 47 0
38 39 40 43 45 46 0
38 39 40 43 45 47 0
38 39 40 43 46 47 0
38 39 40 44 45 46 0
38 39 40 44 45 47 0
38 39 40 44 46 47 0
38 39 40 45 46 47 0
38 39 41 42 43 44 0
38 39 41 42 43 45 0
38 39 41 42 43 46 0
38 39 41 42 43 47 0
38 39 41 42 44 45 0
38 39 41 42 44 46 0
38 39 41 42 44 47 0
38 39 41 42 45 46 0
38 39 41 42 45 47 0
38 39 41 42 46 47 0
38 39 41 43 44 45 0
38 39 41 43 44 46 0
38 39 41 43 44 47 0
38 39 41 43 45 46 0
38 39 41 43 45 47 0
38 39 41 43 46 47 0
38 39 41 44 45 46 0
38 39 41 44 45 47 0
38 39 41 44 46 47 0
38 39 41 45 46 47 0
38 39 42 43 44 45 0
38 39 42 43 44 46 0
38 39 42 43 44 47 0
38 39 42 43 45 46 0
38 39 42 43 45 47 0
38 39 42 43 46 47 0
38 39 42 44 45 46 0
38 39 42 44 45 47 0
38 39 42 44 46 47 0
38 39 42 45 46 47 0
38 39 43 44 45 46 0
38 39 43 44 45 47 0
38 39 43 44 46 47 0
38 39 43 45 46 47 0
38 39 44 45 46 47 0
38 40 41 42 43 44 0
38 40 41 42 43 45 0
38 40 41 42 43 46 0
38 40 41 42 43 47 0
38 40 41 42 44 45 0
38 40 41 42 44 46 0
38 40 41 42 44 47 0
38 40 41 42 45 46 0
38 40 41 42 45 47 0
38 40 41 42 46 47 0
38 40 41 43 44 45 0
38 40 41 43 44 46 0
38 40 41 43 44 47 0
38 40 41 43 45 46 0
38 40 41 43 45 47 0
38 40 41 43 46 47 0
38 40 41 44 45 46 0
38 40 41 44 45 47 0
38 40 41 44 46 47 0
38 40 41 45 46 47 0
38 40 42 43 44 45 0
38 40 42 43 44 46 0
38 40 42 43 44 47 0
38 40 42 43 45 46 0
38 40 42 43 45 47 0
38 40 42 43 46 47 0
38 40 42 44 45 46 0
38 40 42 44 45 47 0
38 40 42 44 46 47 0
38 40 42 45 46 47 0
38 40 43 44 45 46 0
38 40 43 44 45 47 0
38 40 43 44 46 47 0
38 40 43 45 46 47 0
38 40 44 45 46 47 0
38 41 42 43 44 45 0
38 41 42 43 44 46 0
38 41 42 43 44 47 0
38 41 42 43 45 46 0
38 41 42 43 45 47 0
38 41 42 43 46 47 0
38 41 42 44 45 46 0
38 41 42 44 45 47 0
38 41 42 44 46 47 0
38 41 42 45 46 47 0
38 41 43 44 45 46 0
38 41 43 44 45 47 0
38 41 43 44 46 47 0
38 41 43 45 46 47 0
38 41 44 45 46 47 0
38 42 43 44 45 46 0
38 42 43 44 45 47 0
38 42 43 44 46 47 0
38 42 43 45 46 47 0
38 42 44 45 46 47 0
38 43 44 45 46 47 0
39 40 41 42 43 44 0
39 40 41 42 43 45 0
39 40 41 42 43 46 0
39 40 41 42 43 47 0
39 40 41 42 44 45 0
39 40 41 42 44 46 0
39 40 41 42 44 47 0
39 40 41 42 45 46 0
39 40 41 42 45 47 0
39 40 41 42 46 47 0
39 40 41 43 44 45 0
39 40 41 43 44 46 0
39 40 41 43 44 47 0
39 40 41 43 45 46 0
39 40 41 43 45 47 0
39 40 41 43 46 47 0
39 40 41 44 45 46 0
39 40 41 44 45 47 0
39 40 41 44 46 47 0
39 40 41 45 46 47 0
39 40 42 43 44 45 0
39 40 42 43 44 46 0
39 40 42 43 44 47 0
39 40 42 43 45 46 0
39 40 42 43 45 47 0
39 40 42 43 46 47 0
39 40 42 44 45 46 0
39 40 42 44 45 47 0
39 40 42 44 46 47 0
39 40 42 45 46 47 0
39 40 43 44 45 46 0
39 40 43 44 45 47 0
39 40 43 44 46 47 0
39 40 43 45 46 47 0
39 40 44 45 46 47 0
39 41 42 43 44 45 0
39 41 42 43 44 46 0
39 41 42 43 44 47 0
39 41 42 43 45 46 0
39 41 42 43 45 47 0
39 41 42 43 46 47 0
39 41 42 44 45 46 0
39 41 42 44 45 47 0
39 41 42 44 46 47 0
39 41 42 45 46 47 0
39 41 43 44 45 46 0
39 41 43 44 45 47 0
39 41 43 44 46 47 0
39 41 43 45 46 47 0
39 41 44 45 46 47 0
39 42 43 44 45 46 0
39 42 43 44 45 47 0
39 42 43 44 46 47 0
39 42 43 45 46 47 0
39 42 44 45 46 47 0
39 43 44 45 46 47 0
40 41 42 43 44 45 0
40 41 42 43 44 46 0
40 41 42 43 44 47 0
40 41 42 43 45 46 0
40 41 42 43 45 47 0
40 41 42 43 46 47 0
40 41 42 44 45 46 0
40 41 42 44 45 47 0
40 41 42 44 46 47 0
40 41 42 45 46 47 0
40 41 43 44 45 46 0
40 41 43 44 45 47 0
40 41 43 44 46 47 0
40 41 43 45 46 47 0
40 41 44 45 46 47 0
40 42 43 44 45 46 0
40 42 43 44 45 47 0
40 42 43 44 46 47 0
40 42 43 45 46 47 0
40 42 44 45 46 47 0
40 43 44 45 46 47 0
41 42 43 44 45 46 0
41 42 43 44 45 47 0
41 42 43 44 46 47 0
41 42 43 45 46 47 0
41 42 44 45 46 47 0
41 43 44 45 46 47 0
42 43 44 45 46 47 0
-1 -9 -23 0
-1 -9 -29 0
-1 -9 -38 0
-1 -23 -29 0
-1 -23 -38 0
-1 -29 -38 0
-9 -23 -29 0
-9 -23 -38 0
-9 -29 -38 0
-23 -29 -38 0
-2 -10 -30 0
-2 -10 -39 0
-2 -30 -39 0
-10 -30 -39 0
-3 -11 -31 0
-3 -11 -40 0
-3 -31 -40 0
-11 -31 -40 0
-12 -18 -32 0
-12 -18 -41 0
-12 -32 -41 0
-18 -32 -41 0
-4 -13 -19 0
-4 -13 -33 0
-4 -13 -42 0
-4 -19 -33 0
-4 -19 -42 0
-4 -33 -42 0
-13 -19 -33 0
-13 -19 -42 0
-13 -33 -42 0
-19 -33 -42 0
-14 -24 -34 0
-14 -24 -43 0
-14 -34 -43 0
-24 -34 -43 0
-5 -15 -25 0
-5 -15 -44 0
-5 -25 -44 0
-15 -25 -44 0
-6 -16 -20 -26 0
-6 -16 -20 -35 0
-6 -16 -20 -45 0
-6 -16 -26 -35 0
-6 -16 -26 -45 0
-6 -16 -35 -45 0
-6 -20 -26 -35 0
-6 -20 -26 -45 0
-6 -20 -35 -45 0
-6 -26 -35 -45 0
-16 -20 -26 -35 0
-16 -20 -26 -45 0
-16 -20 -35 -45 0
-16 -26 -35 -45 0
-20 -26 -35 -45 0
-7 -17 -21 -27 0
-7 -17 -21 -36 0
-7 -17 -21 -46 0
-7 -17 -27 -36 0
-7 -17 -27 -46 0
-7 -17 -36 -46 0
-7 -21 -27 -36 0
-7 -21 -27 -46 0
-7 -21 -36 -46 0
-7 -27 -36 -46 0
-17 -21 -27 -36 0
-17 -21 -27 -46 0
-17 -21 -36 -46 0
-17 -27 -36 -46 0
-21 -27 -36 -46 0
-8 -22 -28 0
-8 -22 -37 0
-8 -22 -47 0
-8 -28 -37 0
-8 -28 -47 0
-8 -37 -47 0
-22 -28 -37 0
-22 -28 -47 0
-22 -37 -47 0
-28 -37 -47 0